proyfinal/src/viki/013/experimentInOfficeAgust.take6.output/68479e1c-3cea-446c-b7d0-f304dff5d773.als.dat
{'cnf.clauses': '118081',
 'cnf.totvars': '69608',
 'conflict literals': '178',
 'conflicts': '73',
 'decisions': '9781',
 'memused.mb': '15.06',
 'outcome': 'UNSAT',
 'propagations': '59155',
 'restarts': '1',
 'solver.msecs': 36,
 'task.msecs': 230}
