proyfinal/src/viki/013/experimentInOfficeAgust.take6.output/68479e1c-3cea-446c-b7d0-f304dff5d773.als.out
Reading from standard input... Use '--help' for help.
============================[ Problem Statistics ]=============================
|                                                                             |
|  Number of variables:         69608                                         |
|  Number of clauses:          118081                                         |
|  Parse time:                   0.03 s                                       |
|                                                                             |
============================[ Search Statistics ]==============================
| Conflicts |          ORIGINAL         |          LEARNT          | Progress |
|           |    Vars  Clauses Literals |    Limit  Clauses Lit/Cl |          |
===============================================================================
===============================================================================
restarts              : 1
conflicts             : 73             (1991 /sec)
decisions             : 9781           (0.00 % random) (266708 /sec)
propagations          : 59155          (1613040 /sec)
conflict literals     : 178            (7.77 % deleted)
Memory used           : 15.06 MB
CPU time              : 0.036673 s

UNSATISFIABLE
